
Gurobi 10.0.1 (linux64) logging started Sun Nov 26 15:56:51 2023

Set parameter LogFile to value "ArtificialInstance/ExperimentV2/S4T5K1/AdRo/gurobiDoRo79.txt"
Gurobi Optimizer version 10.0.1 build v10.0.1rc0 (linux64)

CPU model: AMD EPYC 7H12 64-Core Processor, instruction set [SSE2|AVX|AVX2]
Thread count: 128 physical cores, 128 logical processors, using up to 32 threads

Academic license 656792 - for non-commercial use only - registered to b.___@student.vu.nl
Optimize a model with 5659 rows, 5206 columns and 20533 nonzeros
Model fingerprint: 0x7edf5ec8
Variable types: 1 continuous, 5205 integer (5205 binary)
Coefficient statistics:
  Matrix range     [1e+00, 4e+01]
  Objective range  [1e+00, 2e+01]
  Bounds range     [1e+00, 1e+00]
  RHS range        [1e+00, 1e+00]
Presolve removed 1921 rows and 1507 columns
Presolve time: 0.07s
Presolved: 3738 rows, 3699 columns, 14410 nonzeros
Variable types: 1 continuous, 3698 integer (3698 binary)
Found heuristic solution: objective 311.8746479

Root relaxation: objective 8.177937e+01, 1192 iterations, 0.03 seconds (0.02 work units)

    Nodes    |    Current Node    |     Objective Bounds      |     Work
 Expl Unexpl |  Obj  Depth IntInf | Incumbent    BestBd   Gap | It/Node Time

H    0     0                      81.7793673   32.00103  60.9%     -    0s
     0     0          -    0        81.77937   81.77937  0.00%     -    0s

Explored 1 nodes (1737 simplex iterations) in 0.14 seconds (0.10 work units)
Thread count was 32 (of 128 available processors)

Solution count 2: 81.7794 311.875 

Optimal solution found (tolerance 1.00e-04)
Best objective 8.177936732482e+01, best bound 8.177936732482e+01, gap 0.0000%
